NAME          GAMSMOD
ROWS
 L  R0000001
 L  R0000002
 L  R0000003
 L  R0000004
 L  R0000005
 L  R0000006
 L  R0000007
 L  R0000008
 L  R0000009
 L  R0000010
 L  R0000011
 L  R0000012
 L  R0000013
 L  R0000014
 L  R0000015
 L  R0000016
 L  R0000017
 L  R0000018
 L  R0000019
 L  R0000020
 L  R0000021
 L  R0000022
 L  R0000023
 L  R0000024
 L  R0000025
 L  R0000026
 L  R0000027
 L  R0000028
 L  R0000029
 L  R0000030
 L  R0000031
 L  R0000032
 L  R0000033
 L  R0000034
 L  R0000035
 L  R0000036
 L  R0000037
 L  R0000038
 L  R0000039
 L  R0000040
 L  R0000041
 L  R0000042
 L  R0000043
 L  R0000044
 L  R0000045
 L  R0000046
 L  R0000047
 L  R0000048
 L  R0000049
 L  R0000050
 L  R0000051
 L  R0000052
 L  R0000053
 L  R0000054
 G  R0000055
 G  R0000056
 G  R0000057
 G  R0000058
 G  R0000059
 G  R0000060
 G  R0000061
 G  R0000062
 G  R0000063
 G  R0000064
 G  R0000065
 G  R0000066
 G  R0000067
 G  R0000068
 G  R0000069
 G  R0000070
 G  R0000071
 G  R0000072
 G  R0000073
 G  R0000074
 G  R0000075
 G  R0000076
 G  R0000077
 G  R0000078
 G  R0000079
 G  R0000080
 G  R0000081
 G  R0000082
 G  R0000083
 G  R0000084
 G  R0000085
 G  R0000086
 G  R0000087
 G  R0000088
 G  R0000089
 G  R0000090
 G  R0000091
 G  R0000092
 G  R0000093
 G  R0000094
 G  R0000095
 G  R0000096
 G  R0000097
 G  R0000098
 G  R0000099
 G  R0000100
 G  R0000101
 G  R0000102
 G  R0000103
 G  R0000104
 G  R0000105
 G  R0000106
 G  R0000107
 G  R0000108
 E  R0000109
 E  R0000110
 E  R0000111
 L  R0000112
 G  R0000113
 E  R0000114
 N  R0000115
COLUMNS
    C0000001  R0000001           -1.   R0000055           -1.
    C0000001  R0000109    .381818182
    C0000002  R0000001            1.   R0000002           -1.
    C0000002  R0000055            1.   R0000056           -1.
    C0000002  R0000109    .381818182
    C0000003  R0000002            1.   R0000003           -1.
    C0000003  R0000056            1.   R0000057           -1.
    C0000003  R0000109    .381818182
    C0000004  R0000003            1.   R0000004           -1.
    C0000004  R0000057            1.   R0000058           -1.
    C0000004  R0000109    .381818182
    C0000005  R0000004            1.   R0000005           -1.
    C0000005  R0000058            1.   R0000059           -1.
    C0000005  R0000109    .381818182
    C0000006  R0000005            1.   R0000006           -1.
    C0000006  R0000059            1.   R0000060           -1.
    C0000006  R0000109    .381818182
    C0000007  R0000006            1.   R0000007           -1.
    C0000007  R0000060            1.   R0000061           -1.
    C0000007  R0000109    .381818182
    C0000008  R0000007            1.   R0000008           -1.
    C0000008  R0000061            1.   R0000062           -1.
    C0000008  R0000109    .381818182
    C0000009  R0000008            1.   R0000009           -1.
    C0000009  R0000062            1.   R0000063           -1.
    C0000009  R0000109    .381818182
    C0000010  R0000009            1.   R0000063            1.
    C0000010  R0000109    .381818182
    C0000011  R0000010           -1.   R0000064           -1.
    C0000011  R0000110    .381818182
    C0000012  R0000010            1.   R0000011           -1.
    C0000012  R0000064            1.   R0000065           -1.
    C0000012  R0000110    .381818182
    C0000013  R0000011            1.   R0000012           -1.
    C0000013  R0000065            1.   R0000066           -1.
    C0000013  R0000110    .381818182
    C0000014  R0000012            1.   R0000013           -1.
    C0000014  R0000066            1.   R0000067           -1.
    C0000014  R0000110    .381818182
    C0000015  R0000013            1.   R0000014           -1.
    C0000015  R0000067            1.   R0000068           -1.
    C0000015  R0000110    .381818182
    C0000016  R0000014            1.   R0000015           -1.
    C0000016  R0000068            1.   R0000069           -1.
    C0000016  R0000110    .381818182
    C0000017  R0000015            1.   R0000016           -1.
    C0000017  R0000069            1.   R0000070           -1.
    C0000017  R0000110    .381818182
    C0000018  R0000016            1.   R0000017           -1.
    C0000018  R0000070            1.   R0000071           -1.
    C0000018  R0000110    .381818182
    C0000019  R0000017            1.   R0000018           -1.
    C0000019  R0000071            1.   R0000072           -1.
    C0000019  R0000110    .381818182
    C0000020  R0000018            1.   R0000072            1.
    C0000020  R0000110    .381818182
    C0000021  R0000019           -1.   R0000073           -1.
    C0000021  R0000111    .381818182
    C0000022  R0000019            1.   R0000020           -1.
    C0000022  R0000073            1.   R0000074           -1.
    C0000022  R0000111    .381818182
    C0000023  R0000020            1.   R0000021           -1.
    C0000023  R0000074            1.   R0000075           -1.
    C0000023  R0000111    .381818182
    C0000024  R0000021            1.   R0000022           -1.
    C0000024  R0000075            1.   R0000076           -1.
    C0000024  R0000111    .381818182
    C0000025  R0000022            1.   R0000023           -1.
    C0000025  R0000076            1.   R0000077           -1.
    C0000025  R0000111    .381818182
    C0000026  R0000023            1.   R0000024           -1.
    C0000026  R0000077            1.   R0000078           -1.
    C0000026  R0000111    .381818182
    C0000027  R0000024            1.   R0000025           -1.
    C0000027  R0000078            1.   R0000079           -1.
    C0000027  R0000111    .381818182
    C0000028  R0000025            1.   R0000026           -1.
    C0000028  R0000079            1.   R0000080           -1.
    C0000028  R0000111    .381818182
    C0000029  R0000026            1.   R0000027           -1.
    C0000029  R0000080            1.   R0000081           -1.
    C0000029  R0000111    .381818182
    C0000030  R0000027            1.   R0000081            1.
    C0000030  R0000111    .381818182
    C0000031  R0000028           -1.   R0000082           -1.
    C0000031  R0000109   -.072727273   R0000112    .072727273
    C0000031  R0000113    .072727273
    C0000032  R0000028            1.   R0000029           -1.
    C0000032  R0000082            1.   R0000083           -1.
    C0000032  R0000109   -.072727273   R0000112    .072727273
    C0000032  R0000113    .072727273
    C0000033  R0000029            1.   R0000030           -1.
    C0000033  R0000083            1.   R0000084           -1.
    C0000033  R0000109   -.072727273   R0000112    .072727273
    C0000033  R0000113    .072727273
    C0000034  R0000030            1.   R0000031           -1.
    C0000034  R0000084            1.   R0000085           -1.
    C0000034  R0000109   -.072727273   R0000112    .072727273
    C0000034  R0000113    .072727273
    C0000035  R0000031            1.   R0000032           -1.
    C0000035  R0000085            1.   R0000086           -1.
    C0000035  R0000109   -.072727273   R0000112    .072727273
    C0000035  R0000113    .072727273
    C0000036  R0000032            1.   R0000033           -1.
    C0000036  R0000086            1.   R0000087           -1.
    C0000036  R0000109   -.072727273   R0000112    .072727273
    C0000036  R0000113    .072727273
    C0000037  R0000033            1.   R0000034           -1.
    C0000037  R0000087            1.   R0000088           -1.
    C0000037  R0000109   -.072727273   R0000112    .072727273
    C0000037  R0000113    .072727273
    C0000038  R0000034            1.   R0000035           -1.
    C0000038  R0000088            1.   R0000089           -1.
    C0000038  R0000109   -.072727273   R0000112    .072727273
    C0000038  R0000113    .072727273
    C0000039  R0000035            1.   R0000036           -1.
    C0000039  R0000089            1.   R0000090           -1.
    C0000039  R0000109   -.072727273   R0000112    .072727273
    C0000039  R0000113    .072727273
    C0000040  R0000036            1.   R0000090            1.
    C0000040  R0000109   -.072727273   R0000112    .072727273
    C0000040  R0000113    .072727273
    C0000041  R0000037           -1.   R0000091           -1.
    C0000041  R0000110   -.072727273
    C0000042  R0000037            1.   R0000038           -1.
    C0000042  R0000091            1.   R0000092           -1.
    C0000042  R0000110   -.072727273
    C0000043  R0000038            1.   R0000039           -1.
    C0000043  R0000092            1.   R0000093           -1.
    C0000043  R0000110   -.072727273
    C0000044  R0000039            1.   R0000040           -1.
    C0000044  R0000093            1.   R0000094           -1.
    C0000044  R0000110   -.072727273
    C0000045  R0000040            1.   R0000041           -1.
    C0000045  R0000094            1.   R0000095           -1.
    C0000045  R0000110   -.072727273
    C0000046  R0000041            1.   R0000042           -1.
    C0000046  R0000095            1.   R0000096           -1.
    C0000046  R0000110   -.072727273
    C0000047  R0000042            1.   R0000043           -1.
    C0000047  R0000096            1.   R0000097           -1.
    C0000047  R0000110   -.072727273
    C0000048  R0000043            1.   R0000044           -1.
    C0000048  R0000097            1.   R0000098           -1.
    C0000048  R0000110   -.072727273
    C0000049  R0000044            1.   R0000045           -1.
    C0000049  R0000098            1.   R0000099           -1.
    C0000049  R0000110   -.072727273
    C0000050  R0000045            1.   R0000099            1.
    C0000050  R0000110   -.072727273
    C0000051  R0000046           -1.   R0000100           -1.
    C0000051  R0000111   -.072727273
    C0000052  R0000046            1.   R0000047           -1.
    C0000052  R0000100            1.   R0000101           -1.
    C0000052  R0000111   -.072727273
    C0000053  R0000047            1.   R0000048           -1.
    C0000053  R0000101            1.   R0000102           -1.
    C0000053  R0000111   -.072727273
    C0000054  R0000048            1.   R0000049           -1.
    C0000054  R0000102            1.   R0000103           -1.
    C0000054  R0000111   -.072727273
    C0000055  R0000049            1.   R0000050           -1.
    C0000055  R0000103            1.   R0000104           -1.
    C0000055  R0000111   -.072727273
    C0000056  R0000050            1.   R0000051           -1.
    C0000056  R0000104            1.   R0000105           -1.
    C0000056  R0000111   -.072727273
    C0000057  R0000051            1.   R0000052           -1.
    C0000057  R0000105            1.   R0000106           -1.
    C0000057  R0000111   -.072727273
    C0000058  R0000052            1.   R0000053           -1.
    C0000058  R0000106            1.   R0000107           -1.
    C0000058  R0000111   -.072727273
    C0000059  R0000053            1.   R0000054           -1.
    C0000059  R0000107            1.   R0000108           -1.
    C0000059  R0000111   -.072727273
    C0000060  R0000054            1.   R0000108            1.
    C0000060  R0000111   -.072727273
    C0000061  R0000114            1.   R0000115            1.
RHS
    RHS       R0000001   3.818181818   R0000002   3.818181818
    RHS       R0000003   3.818181818   R0000004   3.818181818
    RHS       R0000005   3.818181818   R0000006   3.818181818
    RHS       R0000007   3.818181818   R0000008   3.818181818
    RHS       R0000009   3.818181818   R0000010   3.818181818
    RHS       R0000011   3.818181818   R0000012   3.818181818
    RHS       R0000013   3.818181818   R0000014   3.818181818
    RHS       R0000015   3.818181818   R0000016   3.818181818
    RHS       R0000017   3.818181818   R0000018   3.818181818
    RHS       R0000019   3.818181818   R0000020   3.818181818
    RHS       R0000021   3.818181818   R0000022   3.818181818
    RHS       R0000023   3.818181818   R0000024   3.818181818
    RHS       R0000025   3.818181818   R0000026   3.818181818
    RHS       R0000027   3.818181818   R0000028    .727272727
    RHS       R0000029    .727272727   R0000030    .727272727
    RHS       R0000031    .727272727   R0000032    .727272727
    RHS       R0000033    .727272727   R0000034    .727272727
    RHS       R0000035    .727272727   R0000036    .727272727
    RHS       R0000037    .727272727   R0000038    .727272727
    RHS       R0000039    .727272727   R0000040    .727272727
    RHS       R0000041    .727272727   R0000042    .727272727
    RHS       R0000043    .727272727   R0000044    .727272727
    RHS       R0000045    .727272727   R0000046    .727272727
    RHS       R0000047    .727272727   R0000048    .727272727
    RHS       R0000049    .727272727   R0000050    .727272727
    RHS       R0000051    .727272727   R0000052    .727272727
    RHS       R0000053    .727272727   R0000054    .727272727
    RHS       R0000055  -3.818181818   R0000056  -3.818181818
    RHS       R0000057  -3.818181818   R0000058  -3.818181818
    RHS       R0000059  -3.818181818   R0000060  -3.818181818
    RHS       R0000061  -3.818181818   R0000062  -3.818181818
    RHS       R0000063  -3.818181818   R0000064  -3.818181818
    RHS       R0000065  -3.818181818   R0000066  -3.818181818
    RHS       R0000067  -3.818181818   R0000068  -3.818181818
    RHS       R0000069  -3.818181818   R0000070  -3.818181818
    RHS       R0000071  -3.818181818   R0000072  -3.818181818
    RHS       R0000073  -3.818181818   R0000074  -3.818181818
    RHS       R0000075  -3.818181818   R0000076  -3.818181818
    RHS       R0000077  -3.818181818   R0000078  -3.818181818
    RHS       R0000079  -3.818181818   R0000080  -3.818181818
    RHS       R0000081  -3.818181818   R0000082   -.727272727
    RHS       R0000083   -.727272727   R0000084   -.727272727
    RHS       R0000085   -.727272727   R0000086   -.727272727
    RHS       R0000087   -.727272727   R0000088   -.727272727
    RHS       R0000089   -.727272727   R0000090   -.727272727
    RHS       R0000091   -.727272727   R0000092   -.727272727
    RHS       R0000093   -.727272727   R0000094   -.727272727
    RHS       R0000095   -.727272727   R0000096   -.727272727
    RHS       R0000097   -.727272727   R0000098   -.727272727
    RHS       R0000099   -.727272727   R0000100   -.727272727
    RHS       R0000101   -.727272727   R0000102   -.727272727
    RHS       R0000103   -.727272727   R0000104   -.727272727
    RHS       R0000105   -.727272727   R0000106   -.727272727
    RHS       R0000107   -.727272727   R0000108   -.727272727
    RHS       R0000109  -17.16363636   R0000110   12.88951049
    RHS       R0000112   14.10909091   R0000113  -2.675524491
    RHS       R0000114            1.
BOUNDS
 UP BOUND     C0000001           10.
 LO BOUND     C0000001   4.181818182
 UP BOUND     C0000002           10.
 LO BOUND     C0000002    .363636364
 UP BOUND     C0000003           10.
 LO BOUND     C0000003  -3.454545455
 UP BOUND     C0000004           10.
 LO BOUND     C0000004  -7.272727273
 UP BOUND     C0000005           10.
 LO BOUND     C0000005          -10.
 UP BOUND     C0000006           10.
 LO BOUND     C0000006          -10.
 UP BOUND     C0000007           10.
 LO BOUND     C0000007  -7.272727273
 UP BOUND     C0000008           10.
 LO BOUND     C0000008  -3.454545455
 UP BOUND     C0000009           10.
 LO BOUND     C0000009    .363636364
 UP BOUND     C0000010           10.
 LO BOUND     C0000010   4.181818182
 UP BOUND     C0000011   3.818181818
 LO BOUND     C0000011  -3.818181818
 UP BOUND     C0000012   7.636363636
 LO BOUND     C0000012  -7.636363636
 UP BOUND     C0000013           10.
 LO BOUND     C0000013          -10.
 UP BOUND     C0000014           10.
 LO BOUND     C0000014          -10.
 UP BOUND     C0000015           10.
 LO BOUND     C0000015          -10.
 UP BOUND     C0000016           10.
 LO BOUND     C0000016          -10.
 UP BOUND     C0000017           10.
 LO BOUND     C0000017          -10.
 UP BOUND     C0000018           10.
 LO BOUND     C0000018          -10.
 UP BOUND     C0000019   7.636363636
 LO BOUND     C0000019  -7.636363636
 UP BOUND     C0000020   3.818181818
 LO BOUND     C0000020  -3.818181818
 UP BOUND     C0000021   3.818181818
 LO BOUND     C0000021  -3.818181818
 UP BOUND     C0000022   7.636363636
 LO BOUND     C0000022  -7.636363636
 UP BOUND     C0000023           10.
 LO BOUND     C0000023          -10.
 UP BOUND     C0000024           10.
 LO BOUND     C0000024          -10.
 UP BOUND     C0000025           10.
 LO BOUND     C0000025          -10.
 UP BOUND     C0000026           10.
 LO BOUND     C0000026          -10.
 UP BOUND     C0000027           10.
 LO BOUND     C0000027          -10.
 UP BOUND     C0000028           10.
 LO BOUND     C0000028          -10.
 UP BOUND     C0000029   7.636363636
 LO BOUND     C0000029  -7.636363636
 UP BOUND     C0000030   3.818181818
 LO BOUND     C0000030  -3.818181818
 UP BOUND     C0000031   7.272727273
 LO BOUND     C0000031   7.272727273
 UP BOUND     C0000032   6.545454545
 LO BOUND     C0000032   6.545454545
 UP BOUND     C0000033   5.818181818
 LO BOUND     C0000033   5.818181818
 UP BOUND     C0000034   5.090909091
 LO BOUND     C0000034   5.090909091
 UP BOUND     C0000035   4.363636364
 LO BOUND     C0000035   4.363636364
 UP BOUND     C0000036   3.636363636
 LO BOUND     C0000036   3.636363636
 UP BOUND     C0000037   2.909090909
 LO BOUND     C0000037   2.909090909
 UP BOUND     C0000038   2.181818182
 LO BOUND     C0000038   2.181818182
 UP BOUND     C0000039   1.454545455
 LO BOUND     C0000039   1.454545455
 UP BOUND     C0000040    .727272727
 LO BOUND     C0000040    .727272727
 UP BOUND     C0000041    .727272727
 LO BOUND     C0000041   -.727272727
 UP BOUND     C0000042   1.454545455
 LO BOUND     C0000042  -1.454545455
 UP BOUND     C0000043   2.181818182
 LO BOUND     C0000043  -2.181818182
 UP BOUND     C0000044   2.909090909
 LO BOUND     C0000044  -2.629370629
 UP BOUND     C0000045   3.636363636
 LO BOUND     C0000045  -1.902097902
 UP BOUND     C0000046   4.363636364
 LO BOUND     C0000046  -1.174825175
 UP BOUND     C0000047   5.090909091
 LO BOUND     C0000047   -.447552448
 UP BOUND     C0000048   4.643356643
 LO BOUND     C0000048     .27972028
 UP BOUND     C0000049   3.916083916
 LO BOUND     C0000049   1.006993007
 UP BOUND     C0000050   3.188811189
 LO BOUND     C0000050   1.734265734
 UP BOUND     C0000051    .727272727
 LO BOUND     C0000051   -.727272727
 UP BOUND     C0000052   1.454545455
 LO BOUND     C0000052  -1.454545455
 UP BOUND     C0000053   2.181818182
 LO BOUND     C0000053  -2.181818182
 UP BOUND     C0000054   2.909090909
 LO BOUND     C0000054  -2.909090909
 UP BOUND     C0000055   3.636363636
 LO BOUND     C0000055  -3.636363636
 UP BOUND     C0000056   3.636363636
 LO BOUND     C0000056  -3.636363636
 UP BOUND     C0000057   2.909090909
 LO BOUND     C0000057  -2.909090909
 UP BOUND     C0000058   2.181818182
 LO BOUND     C0000058  -2.181818182
 UP BOUND     C0000059   1.454545455
 LO BOUND     C0000059  -1.454545455
 UP BOUND     C0000060    .727272727
 LO BOUND     C0000060   -.727272727
 FR BOUND     C0000061
ENDATA
